
Route #1: 14 56 27 46 54 10 59 45 37 
Route #2: 39 44 29 36 41 20 53 
Route #3: 17 57 52 11 60 1 28 
Route #4: 9 55 42 33 32 49 24 
Route #5: 31 35 47 18 48 16 51 34 
Route #6: 19 58 40 25 50 12 4 26 
Route #7: 15 3 38 
Route #8: 7 23 43 22 13 
Route #9: 6 8 2 5 30 21 
cost 1538.94
total time is 6.9